106	22	4	53	
9	10	10	10

0	0	0	0	0	0	4	1	2	3	4
1	0	0	8	0	5	1	16
2	5	0	0	0	5	1	7
3	0	9	0	0	5	2	5	12
4	0	9	0	0	4	1	9
5	0	0	0	5	4	1	6
6	0	0	3	0	10	3	9	13	16
7	8	0	0	0	4	1	8
8	9	0	0	0	8	2	10	20
9	0	6	0	0	9	1	20
10	8	0	0	0	9	2	11	13
11	0	0	0	2	10	1	12
12	0	2	0	0	9	1	14
13	0	0	0	10	5	1	15
14	0	0	1	0	1	2	16	19
15	0	9	0	0	7	2	18	19
16	0	0	7	0	1	1	17
17	0	7	0	0	1	1	21
18	0	0	0	7	7	1	21
19	0	9	0	0	1	1	21
20	0	10	0	0	1	1	21
21	0	0	0	0	0	0
